decision_x1=[0,4];
decision_x2=[0,4];
decision_x3=[0,4];
decision_x4=[0,4];
random_y1=[0,4];
random_y2=[0,4];
constraint_x3_x2=[
0,1,5.4|
0,2,1.5|
0,3,8.3|
0,4,4.9|
1,0,5.3|
1,2,5.4|
1,3,5.5|
1,4,5.3|
2,0,6.1|
2,1,5.4|
2,3,4.5|
2,4,6.2|
3,0,1.8|
3,1,9|
3,2,2.3|
3,4,5.4|
4,0,8|
4,1,2.1|
4,2,5.6|
4,3,7|
];
constraint_x4_x1=[
0,1,6.4|
0,2,2.1|
0,3,9.4|
0,4,5|
1,0,6.1|
1,2,7.9|
1,3,6.5|
1,4,2.5|
2,0,3.8|
2,1,6.9|
2,3,2.7|
2,4,7.3|
3,0,0.12|
3,1,1.6|
3,2,2.4|
3,4,5.7|
4,0,2.8|
4,1,3.6|
4,2,7|
4,3,1.5|
];
constraint_x4_x2=[
0,1,7.1|
0,2,4.7|
0,3,8|
0,4,0.97|
1,0,8.9|
1,2,2.9|
1,3,7.9|
1,4,7.7|
2,0,9.2|
2,1,4.5|
2,3,8.8|
2,4,6.7|
3,0,4.7|
3,1,5.4|
3,2,3.5|
3,4,7.4|
4,0,9.7|
4,1,0.082|
4,2,3.7|
4,3,3.4|
];
constraint_x1_y1=[
0,0,8.3|
0,1,5.2|
0,2,7|
0,3,3.3|
0,4,3.7|
1,0,9.4|
1,1,3.5|
1,2,6|
1,3,3.7|
1,4,1.7|
2,0,5.5|
2,1,6.6|
2,2,5.6|
2,3,0.92|
2,4,1|
3,0,8.8|
3,1,7.4|
3,2,0.3|
3,3,0.79|
3,4,1.2|
4,0,5.8|
4,1,7.6|
4,2,6.7|
4,3,7.1|
4,4,5.7|
];
constraint_x2_y2=[
0,0,8.6|
0,1,1.5|
0,2,6.1|
0,3,2.7|
0,4,1.5|
1,0,1.7|
1,1,7.3|
1,2,3.3|
1,3,4.9|
1,4,5.8|
2,0,7.6|
2,1,5|
2,2,3.7|
2,3,2.4|
2,4,7.4|
3,0,9.2|
3,1,1.8|
3,2,5.4|
3,3,8.2|
3,4,5.6|
4,0,7.9|
4,1,7.2|
4,2,1.1|
4,3,7.5|
4,4,9.7|
];
initial_distribution_y1=[0.06,0.04,0.32,0.2,0.38];
initial_distribution_y2=[0.25,0.046,0.35,0.11,0.25];
transition_y1=[
0.26,0.38,0.059,0.21,0.1|
0.13,0.12,0.2,0.25,0.31|
0.066,0.23,0.25,0.34,0.12|
0.23,0.15,0.12,0.35,0.15|
0.067,0.26,0.33,0.022,0.32|
];
transition_y2=[
0.035,0.23,0.19,0.29,0.25|
0.038,0.21,0.28,0.11,0.36|
0.1,0.3,0.26,0.29,0.048|
0.34,0.061,0.32,0.22,0.053|
0.25,0.021,0.17,0.26,0.3|
];
